Ordonnancement/plne/source/petit_instance/4job/4job_16.dat
data;
param nombreJob := 4;
param nombreRessource := 3;
param duree := 1 1 2 6 3 8 4 3;
param capaciteRessource := 1 4 2 16 3 13;
param besoinRessource : 1 2 3 :=
                    1   3 5 10
                    2   3 5 4
                    3   3 2 6
                    4   3 8 3;
end;

