Ordonnancement/plne/source/glpk_resultat/4job/4job_16.sol
Problem:    glpsolRcpsp
Rows:       195
Columns:    73 (72 integer, 72 binary)
Non-zeros:  1105
Status:     INTEGER OPTIMAL
Objective:  obj = 18 (MINimum)

   No.   Row name        Activity     Lower bound   Upper bound
------ ------------    ------------- ------------- -------------
     1 periode[1]                  1             1             = 
     2 periode[2]                  6             6             = 
     3 periode[3]                  8             8             = 
     4 periode[4]                  3             3             = 
     5 complet[1,1]                1                           1 
     6 complet[1,2]                0                           1 
     7 complet[1,3]                0                           1 
     8 complet[1,4]                0                           1 
     9 complet[1,5]                0                           1 
    10 complet[1,6]                0                           1 
    11 complet[1,7]                0                           1 
    12 complet[1,8]                0                           1 
    13 complet[1,9]                0                           1 
    14 complet[1,10]
                                   0                           1 
    15 complet[1,11]
                                   0                           1 
    16 complet[1,12]
                                   0                           1 
    17 complet[1,13]
                                   0                           1 
    18 complet[1,14]
                                   0                           1 
    19 complet[1,15]
                                   0                           1 
    20 complet[1,16]
                                   0                           1 
    21 complet[2,1]               -1                           6 
    22 complet[2,2]                4                           6 
    23 complet[2,3]                3                           6 
    24 complet[2,4]                2                           6 
    25 complet[2,5]                1                           6 
    26 complet[2,6]                0                           6 
    27 complet[2,7]                6                           6 
    28 complet[2,8]                0                           6 
    29 complet[2,9]                0                           6 
    30 complet[2,10]
                                   0                           6 
    31 complet[2,11]
                                   0                           6 
    32 complet[2,12]
                                   0                           6 
    33 complet[2,13]
                                   0                           6 
    34 complet[2,14]
                                   0                           6 
    35 complet[2,15]
                                   0                           6 
    36 complet[2,16]
                                   0                           6 
    37 complet[3,1]                8                           8 
    38 complet[3,2]                8                           8 
    39 complet[3,3]                8                           8 
    40 complet[3,4]                8                           8 
    41 complet[3,5]                8                           8 
    42 complet[3,6]                8                           8 
    43 complet[3,7]                8                           8 
    44 complet[3,8]                8                           8 
    45 complet[3,9]                8                           8 
    46 complet[3,10]
                                  -1                           8 
    47 complet[3,11]
                                   6                           8 
    48 complet[3,12]
                                   5                           8 
    49 complet[3,13]
                                   4                           8 
    50 complet[3,14]
                                   3                           8 
    51 complet[3,15]
                                   2                           8 
    52 complet[3,16]
                                   1                           8 
    53 complet[4,1]                3                           3 
    54 complet[4,2]                3                           3 
    55 complet[4,3]                3                           3 
    56 complet[4,4]                3                           3 
    57 complet[4,5]                3                           3 
    58 complet[4,6]                3                           3 
    59 complet[4,7]               -1                           3 
    60 complet[4,8]                1                           3 
    61 complet[4,9]                0                           3 
    62 complet[4,10]
                                   3                           3 
    63 complet[4,11]
                                   0                           3 
    64 complet[4,12]
                                   0                           3 
    65 complet[4,13]
                                   0                           3 
    66 complet[4,14]
                                   0                           3 
    67 complet[4,15]
                                   0                           3 
    68 complet[4,16]
                                   0                           3 
    69 cmax[1,1]                  17            -0               
    70 cmax[1,2]                  18            -0               
    71 cmax[1,3]                  18            -0               
    72 cmax[1,4]                  18            -0               
    73 cmax[1,5]                  18            -0               
    74 cmax[1,6]                  18            -0               
    75 cmax[1,7]                  18            -0               
    76 cmax[1,8]                  18            -0               
    77 cmax[1,9]                  18            -0               
    78 cmax[1,10]                 18            -0               
    79 cmax[1,11]                 18            -0               
    80 cmax[1,12]                 18            -0               
    81 cmax[1,13]                 18            -0               
    82 cmax[1,14]                 18            -0               
    83 cmax[1,15]                 18            -0               
    84 cmax[1,16]                 18            -0               
    85 cmax[1,17]                 18            -0               
    86 cmax[1,18]                 18            -0               
    87 cmax[2,1]                  18            -0               
    88 cmax[2,2]                  16            -0               
    89 cmax[2,3]                  15            -0               
    90 cmax[2,4]                  14            -0               
    91 cmax[2,5]                  13            -0               
    92 cmax[2,6]                  12            -0               
    93 cmax[2,7]                  11            -0               
    94 cmax[2,8]                  18            -0               
    95 cmax[2,9]                  18            -0               
    96 cmax[2,10]                 18            -0               
    97 cmax[2,11]                 18            -0               
    98 cmax[2,12]                 18            -0               
    99 cmax[2,13]                 18            -0               
   100 cmax[2,14]                 18            -0               
   101 cmax[2,15]                 18            -0               
   102 cmax[2,16]                 18            -0               
   103 cmax[2,17]                 18            -0               
   104 cmax[2,18]                 18            -0               
   105 cmax[3,1]                  18            -0               
   106 cmax[3,2]                  18            -0               
   107 cmax[3,3]                  18            -0               
   108 cmax[3,4]                  18            -0               
   109 cmax[3,5]                  18            -0               
   110 cmax[3,6]                  18            -0               
   111 cmax[3,7]                  18            -0               
   112 cmax[3,8]                  18            -0               
   113 cmax[3,9]                  18            -0               
   114 cmax[3,10]                 18            -0               
   115 cmax[3,11]                  7            -0               
   116 cmax[3,12]                  6            -0               
   117 cmax[3,13]                  5            -0               
   118 cmax[3,14]                  4            -0               
   119 cmax[3,15]                  3            -0               
   120 cmax[3,16]                  2            -0               
   121 cmax[3,17]                  1            -0               
   122 cmax[3,18]                  0            -0               
   123 cmax[4,1]                  18            -0               
   124 cmax[4,2]                  18            -0               
   125 cmax[4,3]                  18            -0               
   126 cmax[4,4]                  18            -0               
   127 cmax[4,5]                  18            -0               
   128 cmax[4,6]                  18            -0               
   129 cmax[4,7]                  18            -0               
   130 cmax[4,8]                  10            -0               
   131 cmax[4,9]                   9            -0               
   132 cmax[4,10]                  8            -0               
   133 cmax[4,11]                 18            -0               
   134 cmax[4,12]                 18            -0               
   135 cmax[4,13]                 18            -0               
   136 cmax[4,14]                 18            -0               
   137 cmax[4,15]                 18            -0               
   138 cmax[4,16]                 18            -0               
   139 cmax[4,17]                 18            -0               
   140 cmax[4,18]                 18            -0               
   141 ressource[1,1]
                                   3                           4 
   142 ressource[1,2]
                                   3                           4 
   143 ressource[1,3]
                                   3                           4 
   144 ressource[1,4]
                                   3                           4 
   145 ressource[1,5]
                                   3                           4 
   146 ressource[1,6]
                                   3                           4 
   147 ressource[1,7]
                                   3                           4 
   148 ressource[1,8]
                                   3                           4 
   149 ressource[1,9]
                                   3                           4 
   150 ressource[1,10]
                                   3                           4 
   151 ressource[1,11]
                                   3                           4 
   152 ressource[1,12]
                                   3                           4 
   153 ressource[1,13]
                                   3                           4 
   154 ressource[1,14]
                                   3                           4 
   155 ressource[1,15]
                                   3                           4 
   156 ressource[1,16]
                                   3                           4 
   157 ressource[1,17]
                                   3                           4 
   158 ressource[1,18]
                                   3                           4 
   159 ressource[2,1]
                                   5                          16 
   160 ressource[2,2]
                                   5                          16 
   161 ressource[2,3]
                                   5                          16 
   162 ressource[2,4]
                                   5                          16 
   163 ressource[2,5]
                                   5                          16 
   164 ressource[2,6]
                                   5                          16 
   165 ressource[2,7]
                                   5                          16 
   166 ressource[2,8]
                                   8                          16 
   167 ressource[2,9]
                                   8                          16 
   168 ressource[2,10]
                                   8                          16 
   169 ressource[2,11]
                                   2                          16 
   170 ressource[2,12]
                                   2                          16 
   171 ressource[2,13]
                                   2                          16 
   172 ressource[2,14]
                                   2                          16 
   173 ressource[2,15]
                                   2                          16 
   174 ressource[2,16]
                                   2                          16 
   175 ressource[2,17]
                                   2                          16 
   176 ressource[2,18]
                                   2                          16 
   177 ressource[3,1]
                                  10                          13 
   178 ressource[3,2]
                                   4                          13 
   179 ressource[3,3]
                                   4                          13 
   180 ressource[3,4]
                                   4                          13 
   181 ressource[3,5]
                                   4                          13 
   182 ressource[3,6]
                                   4                          13 
   183 ressource[3,7]
                                   4                          13 
   184 ressource[3,8]
                                   3                          13 
   185 ressource[3,9]
                                   3                          13 
   186 ressource[3,10]
                                   3                          13 
   187 ressource[3,11]
                                   6                          13 
   188 ressource[3,12]
                                   6                          13 
   189 ressource[3,13]
                                   6                          13 
   190 ressource[3,14]
                                   6                          13 
   191 ressource[3,15]
                                   6                          13 
   192 ressource[3,16]
                                   6                          13 
   193 ressource[3,17]
                                   6                          13 
   194 ressource[3,18]
                                   6                          13 
   195 obj                        18                             

   No. Column name       Activity     Lower bound   Upper bound
------ ------------    ------------- ------------- -------------
     1 x[1,1]       *              1             0             1 
     2 x[1,2]       *              0             0             1 
     3 x[1,3]       *              0             0             1 
     4 x[1,4]       *              0             0             1 
     5 x[1,5]       *              0             0             1 
     6 x[1,6]       *              0             0             1 
     7 x[1,7]       *              0             0             1 
     8 x[1,8]       *              0             0             1 
     9 x[1,9]       *              0             0             1 
    10 x[1,10]      *              0             0             1 
    11 x[1,11]      *              0             0             1 
    12 x[1,12]      *              0             0             1 
    13 x[1,13]      *              0             0             1 
    14 x[1,14]      *              0             0             1 
    15 x[1,15]      *              0             0             1 
    16 x[1,16]      *              0             0             1 
    17 x[1,17]      *              0             0             1 
    18 x[1,18]      *              0             0             1 
    19 x[2,1]       *              0             0             1 
    20 x[2,2]       *              1             0             1 
    21 x[2,3]       *              1             0             1 
    22 x[2,4]       *              1             0             1 
    23 x[2,5]       *              1             0             1 
    24 x[2,6]       *              1             0             1 
    25 x[2,7]       *              1             0             1 
    26 x[2,8]       *              0             0             1 
    27 x[2,9]       *              0             0             1 
    28 x[2,10]      *              0             0             1 
    29 x[2,11]      *              0             0             1 
    30 x[2,12]      *              0             0             1 
    31 x[2,13]      *              0             0             1 
    32 x[2,14]      *              0             0             1 
    33 x[2,15]      *              0             0             1 
    34 x[2,16]      *              0             0             1 
    35 x[2,17]      *              0             0             1 
    36 x[2,18]      *              0             0             1 
    37 x[3,1]       *              0             0             1 
    38 x[3,2]       *              0             0             1 
    39 x[3,3]       *              0             0             1 
    40 x[3,4]       *              0             0             1 
    41 x[3,5]       *              0             0             1 
    42 x[3,6]       *              0             0             1 
    43 x[3,7]       *              0             0             1 
    44 x[3,8]       *              0             0             1 
    45 x[3,9]       *              0             0             1 
    46 x[3,10]      *              0             0             1 
    47 x[3,11]      *              1             0             1 
    48 x[3,12]      *              1             0             1 
    49 x[3,13]      *              1             0             1 
    50 x[3,14]      *              1             0             1 
    51 x[3,15]      *              1             0             1 
    52 x[3,16]      *              1             0             1 
    53 x[3,17]      *              1             0             1 
    54 x[3,18]      *              1             0             1 
    55 x[4,1]       *              0             0             1 
    56 x[4,2]       *              0             0             1 
    57 x[4,3]       *              0             0             1 
    58 x[4,4]       *              0             0             1 
    59 x[4,5]       *              0             0             1 
    60 x[4,6]       *              0             0             1 
    61 x[4,7]       *              0             0             1 
    62 x[4,8]       *              1             0             1 
    63 x[4,9]       *              1             0             1 
    64 x[4,10]      *              1             0             1 
    65 x[4,11]      *              0             0             1 
    66 x[4,12]      *              0             0             1 
    67 x[4,13]      *              0             0             1 
    68 x[4,14]      *              0             0             1 
    69 x[4,15]      *              0             0             1 
    70 x[4,16]      *              0             0             1 
    71 x[4,17]      *              0             0             1 
    72 x[4,18]      *              0             0             1 
    73 z                          18                             

Integer feasibility conditions:

KKT.PE: max.abs.err = 0.00e+00 on row 0
        max.rel.err = 0.00e+00 on row 0
        High quality

KKT.PB: max.abs.err = 0.00e+00 on row 0
        max.rel.err = 0.00e+00 on row 0
        High quality

End of output
